benchmark/results/graph__10-1000-0.10-03_12/graph__10-1000-0.10-03_12_Quinton_Benders_aux.lp
\ This file has been generated by DOcplex
\ ENCODING=ISO-8859-1
\Problem name: Quinton Benders_auxiliary_sub

Minimize
 obj: 0.001338510797 pi_nr_a0 + 0.001273595186 pi_nr_a1
      + 0.001263460672 pi_nr_a2 + 0.000934445904 pi_nr_a3
      + 0.000811151778 pi_nr_a4 + 0.001428571429 pi_nr_a5
      + 0.000980261484 pi_nr_a6 + 0.002671236595 pi_nr_a7
      + 0.001574006258 pi_nr_a8 + 0.000974658869 pi_nr_a9 + pi_p_a4_a5
      + pi_p_a4_a7 + pi_p_a8_a0 + 1888.906750578032 pi_d_a0_a1_proc_2
      + 640.654091146336 pi_d_a0_a1_proc_1 + 669.875523169669 pi_d_a0_a1_proc_0
      + 3167.615840648674 pi_d_a1_a0_proc_2
      + 1919.363181216979 pi_d_a1_a0_proc_1
      + 1948.584613240311 pi_d_a1_a0_proc_0
      + 3265.030329936591 pi_d_a0_a2_proc_2
      + 1438.871749840415 pi_d_a0_a2_proc_1
      + 2569.873735971894 pi_d_a0_a2_proc_0
      + 1827.513119437324 pi_d_a2_a0_proc_2 + 1.354539341148 pi_d_a2_a0_proc_1
      + 1132.356525472627 pi_d_a2_a0_proc_0 + 81.293280088266 pi_d_a0_a3_proc_1
      + 2558.040252178558 pi_d_a0_a3_proc_0 + 1.312256008270 pi_d_a3_a0_proc_1
      + 2478.059228098562 pi_d_a3_a0_proc_0
      + 2804.602817041267 pi_d_a0_a4_proc_2
      + 3589.183530374919 pi_d_a0_a4_proc_0 + 248.307833434117 pi_d_a4_a0_proc_2
      + 1032.888546767769 pi_d_a4_a0_proc_0 + 0.982667227722 pi_d_a0_a5_proc_1
      + 2558.317903014011 pi_d_a0_a5_proc_0 + 1.034605172817 pi_d_a5_a0_proc_1
      + 2558.369840959107 pi_d_a5_a0_proc_0
      + 2587.384122937996 pi_d_a0_a6_proc_2
      + 2558.364414085163 pi_d_a0_a6_proc_1
      + 3806.818796680378 pi_d_a0_a6_proc_0 + 30.672567135638 pi_d_a6_a0_proc_2
      + 1.652858282805 pi_d_a6_a0_proc_1 + 1250.107240878020 pi_d_a6_a0_proc_0
      + 2559.166566072248 pi_d_a0_a7_proc_2 + 82.021028897867 pi_d_a0_a7_proc_1
      + 2599.283203450788 pi_d_a0_a7_proc_0
      + 2477.186033791646 pi_d_a7_a0_proc_2 + 0.040496617264 pi_d_a7_a0_proc_1
      + 2517.302671170186 pi_d_a7_a0_proc_0
      + 2812.656306406444 pi_d_a0_a8_proc_2 + 595.628512822144 pi_d_a0_a8_proc_1
      + 2600.458151157942 pi_d_a0_a8_proc_0
      + 2218.494326148758 pi_d_a8_a0_proc_2 + 1.466532564457 pi_d_a8_a0_proc_1
      + 2006.296170900255 pi_d_a8_a0_proc_0
      + 2559.138671799386 pi_d_a0_a9_proc_2 + 1.999816209748 pi_d_a0_a9_proc_1
      + 2557.156311794387 pi_d_a9_a0_proc_2 + 0.017456204750 pi_d_a9_a0_proc_1
      + 3113.808547071334 pi_d_a1_a2_proc_2
      + 2595.675018787879 pi_d_a1_a2_proc_1
      + 1199.227965332888 pi_d_a1_a2_proc_0
      + 1919.667526276600 pi_d_a2_a1_proc_2
      + 1401.533997993145 pi_d_a2_a1_proc_1 + 5.086944538154 pi_d_a2_a1_proc_0
      + 2558.313174821917 pi_d_a1_a3_proc_1
      + 2507.611107325738 pi_d_a1_a3_proc_0 + 81.275088874081 pi_d_a3_a1_proc_1
      + 30.573021377902 pi_d_a3_a1_proc_0 + 594.718102921642 pi_d_a1_a4_proc_2
      + 159.874828481545 pi_d_a1_a4_proc_0 + 2399.125171527761 pi_d_a4_a1_proc_2
      + 1964.281897087664 pi_d_a4_a1_proc_0 + 80.920661583288 pi_d_a1_a5_proc_1
      + 110.806857783107 pi_d_a1_a5_proc_0 + 2478.079338416712 pi_d_a5_a1_proc_1
      + 2507.965534616531 pi_d_a5_a1_proc_0
      + 2399.765538916430 pi_d_a1_a6_proc_2
      + 3678.770881876318 pi_d_a1_a6_proc_1
      + 2399.776224885063 pi_d_a1_a6_proc_0 + 159.223775131223 pi_d_a6_a1_proc_2
      + 1438.229118091111 pi_d_a6_a1_proc_1 + 159.234461099856 pi_d_a6_a1_proc_0
      + 1849.628964478896 pi_d_a1_a7_proc_2 + 680.508479117236 pi_d_a1_a7_proc_1
      + 670.321614083687 pi_d_a1_a7_proc_0 + 3127.656259359017 pi_d_a7_a1_proc_2
      + 1958.535773997357 pi_d_a7_a1_proc_1
      + 1948.348908963808 pi_d_a7_a1_proc_0
      + 1539.341230066113 pi_d_a1_a8_proc_2 + 630.338488294534 pi_d_a1_a8_proc_1
      + 107.719087043861 pi_d_a1_a8_proc_0 + 3432.742026463108 pi_d_a8_a1_proc_2
      + 2523.739284691529 pi_d_a8_a1_proc_1
      + 2001.119883440856 pi_d_a8_a1_proc_0
      + 1329.700335644130 pi_d_a1_a9_proc_2 + 80.586531867214 pi_d_a1_a9_proc_1
      + 3727.527271923661 pi_d_a9_a1_proc_2
      + 2478.413468146745 pi_d_a9_a1_proc_1 + 160.342714905739 pi_d_a2_a3_proc_1
      + 1211.421201517707 pi_d_a2_a3_proc_0
      + 1359.454565608507 pi_d_a3_a2_proc_1
      + 2410.533052220475 pi_d_a3_a2_proc_0
      + 2774.061499387957 pi_d_a2_a4_proc_2
      + 2863.092858391525 pi_d_a2_a4_proc_0 + 255.802633208657 pi_d_a4_a2_proc_2
      + 344.833992212225 pi_d_a4_a2_proc_0 + 1.020635004764 pi_d_a2_a5_proc_1
      + 1132.687385312730 pi_d_a2_a5_proc_0
      + 1438.188381813484 pi_d_a5_a2_proc_1
      + 2569.855132121450 pi_d_a5_a2_proc_0
      + 1978.866415024670 pi_d_a2_a6_proc_2
      + 2679.965837320077 pi_d_a2_a6_proc_1
      + 2502.751734436968 pi_d_a2_a6_proc_0 + 616.143757170193 pi_d_a6_a2_proc_2
      + 1317.243179465600 pi_d_a6_a2_proc_1
      + 1140.029076582492 pi_d_a6_a2_proc_0
      + 3226.218812788075 pi_d_a2_a7_proc_2
      + 1479.192406761933 pi_d_a2_a7_proc_1
      + 2570.786095836531 pi_d_a2_a7_proc_0
      + 1787.087269197049 pi_d_a7_a2_proc_2 + 40.060863170908 pi_d_a7_a2_proc_1
      + 1131.654552245505 pi_d_a7_a2_proc_0
      + 3457.588140144390 pi_d_a2_a8_proc_2
      + 1970.679477708330 pi_d_a2_a8_proc_1
      + 2549.840630565804 pi_d_a2_a8_proc_0
      + 1550.515974532041 pi_d_a8_a2_proc_2 + 63.607312095981 pi_d_a8_a2_proc_1
      + 642.768464953455 pi_d_a8_a2_proc_0 + 3266.180147581484 pi_d_a2_a9_proc_2
      + 1439.160423140087 pi_d_a2_a9_proc_1
      + 1827.068318133518 pi_d_a9_a2_proc_2 + 0.048593692120 pi_d_a9_a2_proc_1
      + 4540.766772561345 pi_d_a3_a4_proc_0 + 1.029296875005 pi_d_a4_a3_proc_0
      + 80.921901104952 pi_d_a3_a5_proc_1 + 2558.333637371730 pi_d_a3_a5_proc_0
      + 0.666362628270 pi_d_a5_a3_proc_1 + 2478.078098895048 pi_d_a5_a3_proc_0
      + 41.669890670678 pi_d_a3_a6_proc_1 + 1210.200773746382 pi_d_a3_a6_proc_0
      + 2597.918373029973 pi_d_a6_a3_proc_1
      + 3766.449256105677 pi_d_a6_a3_proc_0 + 121.522284469578 pi_d_a3_a7_proc_1
      + 2558.860959502988 pi_d_a3_a7_proc_0 + 40.110232378236 pi_d_a7_a3_proc_1
      + 2477.448907411646 pi_d_a7_a3_proc_0 + 635.936747547950 pi_d_a3_a8_proc_1
      + 2560.842886364237 pi_d_a3_a8_proc_0 + 40.729289171334 pi_d_a8_a3_proc_1
      + 1965.635427987621 pi_d_a8_a3_proc_0 + 1.635137494784 pi_d_a3_a9_proc_1
      + 79.953126252396 pi_d_a9_a3_proc_1 + 4622.384333013137 pi_d_a4_a5_proc_0
      + 0.000000119210 pi_d_a5_a4_proc_0 + 17.043157971642 pi_d_a4_a6_proc_2
      + 2020.665784682290 pi_d_a4_a6_proc_0 + 538.334215324690 pi_d_a6_a4_proc_2
      + 2541.956842035337 pi_d_a6_a4_proc_0
      + 2726.354767324985 pi_d_a4_a7_proc_2
      + 3550.659357671791 pi_d_a4_a7_proc_0 + 247.318515761607 pi_d_a7_a4_proc_2
      + 1071.623106108413 pi_d_a7_a4_proc_0 + 559.653309002746 pi_d_a4_a8_proc_2
      + 1131.643106722509 pi_d_a4_a8_proc_0
      + 2408.818006775154 pi_d_a8_a4_proc_2
      + 2980.807804494917 pi_d_a8_a4_proc_0 + 95.927099527187 pi_d_a4_a9_proc_2
      + 2957.688567289283 pi_d_a9_a4_proc_2 + 559.848665100526 pi_d_a5_a6_proc_1
      + 1808.967811872228 pi_d_a5_a6_proc_0
      + 1999.151334904127 pi_d_a6_a5_proc_1
      + 3248.270481675828 pi_d_a6_a5_proc_0 + 0.155413585766 pi_d_a5_a7_proc_1
      + 2518.082352315174 pi_d_a5_a7_proc_0 + 80.888839566051 pi_d_a7_a5_proc_1
      + 2598.815778295459 pi_d_a7_a5_proc_0 + 559.446314707092 pi_d_a5_a8_proc_1
      + 2564.940717219376 pi_d_a5_a8_proc_0 + 36.631458316194 pi_d_a8_a5_proc_1
      + 2042.125860828479 pi_d_a8_a5_proc_0 + 0.000000019189 pi_d_a5_a9_proc_1
      + 1.000000031994 pi_d_a9_a5_proc_1 + 2508.353966765601 pi_d_a6_a7_proc_2
      + 2558.466431982803 pi_d_a6_a7_proc_1
      + 3767.512517521136 pi_d_a6_a7_proc_0 + 30.465355919241 pi_d_a7_a6_proc_2
      + 80.577821136443 pi_d_a7_a6_proc_1 + 1289.623906674776 pi_d_a7_a6_proc_0
      + 32.804222103862 pi_d_a6_a8_proc_2 + 343.034430911145 pi_d_a6_a8_proc_1
      + 1039.647980232355 pi_d_a6_a8_proc_0
      + 2500.813133272287 pi_d_a8_a6_proc_2
      + 2811.043342079570 pi_d_a8_a6_proc_1
      + 3507.656891400780 pi_d_a8_a6_proc_0 + 589.782482013159 pi_d_a6_a9_proc_2
      + 559.901628815105 pi_d_a6_a9_proc_1 + 2028.979224401561 pi_d_a9_a6_proc_2
      + 1999.098371203507 pi_d_a9_a6_proc_1
      + 2217.188064091315 pi_d_a7_a8_proc_2 + 79.292444577049 pi_d_a7_a8_proc_1
      + 2044.713785855966 pi_d_a7_a8_proc_0
      + 2734.725201075095 pi_d_a8_a7_proc_2 + 596.829581560830 pi_d_a8_a7_proc_1
      + 2562.250922839746 pi_d_a8_a7_proc_0
      + 2478.736677060660 pi_d_a7_a9_proc_2 + 0.729995541058 pi_d_a7_a9_proc_1
      + 2558.320939144320 pi_d_a9_a7_proc_2 + 80.314257624717 pi_d_a9_a7_proc_1
      + 2814.223930230609 pi_d_a8_a9_proc_2 + 596.334992301088 pi_d_a8_a9_proc_1
      + 2217.631718665679 pi_d_a9_a8_proc_2 - 0.257219263842 pi_d_a9_a8_proc_1
      + 0.000122070371 pi_y2_a0_proc_0 + 0.999602317286 pi_y2_a0_proc_1
      + 0.000275612343 pi_y2_a0_proc_2 + 0.976633153863 pi_y2_a1_proc_0
      + 0.000000000007 pi_y2_a1_proc_1 + 0.023366846130 pi_y2_a1_proc_2
      + 0.552954449784 pi_y2_a2_proc_0 + 0.437760353088 pi_y2_a2_proc_1
      + 0.009285197128 pi_y2_a2_proc_2 + 0.031504403329 pi_y2_a3_proc_0
      + 0.968495596671 pi_y2_a3_proc_1 + 0.193360307603 pi_y2_a4_proc_0
      + 0.806639692397 pi_y2_a4_proc_2 + 0.000000000007 pi_y2_a5_proc_0
      + 0.999999999993 pi_y2_a5_proc_1 + 0.023362668660 pi_y2_a6_proc_0
      + 0.000000000005 pi_y2_a6_proc_1 + 0.976637331334 pi_y2_a6_proc_2
      + 0.000039823835 pi_y2_a7_proc_0 + 0.968708266953 pi_y2_a7_proc_1
      + 0.031251909211 pi_y2_a7_proc_2 + 0.199348483946 pi_y2_a8_proc_0
      + 0.767365999607 pi_y2_a8_proc_1 + 0.033285516447 pi_y2_a8_proc_2
      + 0.999999999987 pi_y2_a9_proc_1 + 0.000000000013 pi_y2_a9_proc_2
Subject To
 c1: 0.001338688086 pi_nr_a0 + 0.001267427123 pi_nr_a1 + 0.001488095238 pi_nr_a2
     + 0.000931098696 pi_nr_a3 + 0.000816993464 pi_nr_a4
     + 0.001428571429 pi_nr_a5 + 0.000981354269 pi_nr_a6
     + 0.002732240437 pi_nr_a7 + 0.001739130435 pi_nr_a8
     + 0.000974658869 pi_nr_a9 + pi_p_a4_a5 + pi_p_a4_a7 + pi_p_a8_a0
     + 1280 pi_d_a0_a1_proc_2 + pi_d_a0_a1_proc_1 + pi_d_a0_a1_proc_0
     + 3837 pi_d_a1_a0_proc_2 + 2558 pi_d_a1_a0_proc_1 + 2558 pi_d_a1_a0_proc_0
     + 3837 pi_d_a0_a2_proc_2 + 2558 pi_d_a0_a2_proc_1 + 2558 pi_d_a0_a2_proc_0
     + 1280 pi_d_a2_a0_proc_2 + pi_d_a2_a0_proc_1 + pi_d_a2_a0_proc_0
     + 2558 pi_d_a0_a3_proc_0 + pi_d_a3_a0_proc_1 + 2559 pi_d_a3_a0_proc_0
     + 2558 pi_d_a0_a4_proc_2 + 3837 pi_d_a0_a4_proc_0 + pi_d_a4_a0_proc_2
     + 1280 pi_d_a4_a0_proc_0 + pi_d_a0_a5_proc_1 + 2559 pi_d_a0_a5_proc_0
     + 2558 pi_d_a5_a0_proc_0 + 2559 pi_d_a0_a6_proc_2 + 2559 pi_d_a0_a6_proc_1
     + 3838 pi_d_a0_a6_proc_0 + 1279 pi_d_a6_a0_proc_0 + 2559 pi_d_a0_a7_proc_2
     + pi_d_a0_a7_proc_1 + 2559 pi_d_a0_a7_proc_0 + 2558 pi_d_a7_a0_proc_2
     + 2558 pi_d_a7_a0_proc_0 + 2558 pi_d_a0_a8_proc_2 + 2558 pi_d_a0_a8_proc_0
     + 2559 pi_d_a8_a0_proc_2 + pi_d_a8_a0_proc_1 + 2559 pi_d_a8_a0_proc_0
     + 2559 pi_d_a0_a9_proc_2 + pi_d_a0_a9_proc_1 + 2558 pi_d_a9_a0_proc_2
     + 2558 pi_d_a1_a2_proc_2 + 2558 pi_d_a1_a2_proc_1 + 2559 pi_d_a2_a1_proc_2
     + 2559 pi_d_a2_a1_proc_1 + pi_d_a2_a1_proc_0 + 2558 pi_d_a1_a3_proc_1
     + 2558 pi_d_a1_a3_proc_0 + pi_d_a3_a1_proc_1 + pi_d_a3_a1_proc_0
     + 2559 pi_d_a4_a1_proc_2 + 2559 pi_d_a4_a1_proc_0 + pi_d_a1_a5_proc_1
     + pi_d_a1_a5_proc_0 + 2558 pi_d_a5_a1_proc_1 + 2558 pi_d_a5_a1_proc_0
     + 2559 pi_d_a1_a6_proc_2 + 3838 pi_d_a1_a6_proc_1 + 2559 pi_d_a1_a6_proc_0
     + 1279 pi_d_a6_a1_proc_1 + 1280 pi_d_a1_a7_proc_2 + pi_d_a1_a7_proc_1
     + pi_d_a1_a7_proc_0 + 3837 pi_d_a7_a1_proc_2 + 2558 pi_d_a7_a1_proc_1
     + 2558 pi_d_a7_a1_proc_0 + 1278 pi_d_a1_a8_proc_2 - pi_d_a1_a8_proc_1
     - pi_d_a1_a8_proc_0 + 3839 pi_d_a8_a1_proc_2 + 2560 pi_d_a8_a1_proc_1
     + 2560 pi_d_a8_a1_proc_0 + 1280 pi_d_a1_a9_proc_2 + pi_d_a1_a9_proc_1
     + 3837 pi_d_a9_a1_proc_2 + 2558 pi_d_a9_a1_proc_1 + pi_d_a2_a3_proc_1
     + pi_d_a2_a3_proc_0 + 2558 pi_d_a3_a2_proc_1 + 2558 pi_d_a3_a2_proc_0
     + 2558 pi_d_a2_a4_proc_2 + 2558 pi_d_a2_a4_proc_0 + pi_d_a4_a2_proc_2
     + pi_d_a4_a2_proc_0 + pi_d_a2_a5_proc_1 + pi_d_a2_a5_proc_0
     + 2558 pi_d_a5_a2_proc_1 + 2558 pi_d_a5_a2_proc_0 + 2559 pi_d_a2_a6_proc_2
     + 3838 pi_d_a2_a6_proc_1 + 2559 pi_d_a2_a6_proc_0 + 1279 pi_d_a6_a2_proc_1
     + 3838 pi_d_a2_a7_proc_2 + 2559 pi_d_a2_a7_proc_1 + 2559 pi_d_a2_a7_proc_0
     + 1279 pi_d_a7_a2_proc_2 + 3837 pi_d_a2_a8_proc_2 + 2558 pi_d_a2_a8_proc_1
     + 2558 pi_d_a2_a8_proc_0 + 1280 pi_d_a8_a2_proc_2 + pi_d_a8_a2_proc_1
     + pi_d_a8_a2_proc_0 + 3838 pi_d_a2_a9_proc_2 + 2559 pi_d_a2_a9_proc_1
     + 1279 pi_d_a9_a2_proc_2 + 5116 pi_d_a3_a4_proc_0 + pi_d_a4_a3_proc_0
     + pi_d_a3_a5_proc_1 + 2559 pi_d_a3_a5_proc_0 + 2558 pi_d_a5_a3_proc_0
     + pi_d_a3_a6_proc_1 + 1280 pi_d_a3_a6_proc_0 + 2558 pi_d_a6_a3_proc_1
     + 3837 pi_d_a6_a3_proc_0 + pi_d_a3_a7_proc_1 + 2559 pi_d_a3_a7_proc_0
     + 2558 pi_d_a7_a3_proc_0 + 2558 pi_d_a3_a8_proc_0 + pi_d_a8_a3_proc_1
     + 2559 pi_d_a8_a3_proc_0 + pi_d_a3_a9_proc_1 + 5117 pi_d_a4_a5_proc_0
     + pi_d_a4_a6_proc_2 + 2559 pi_d_a4_a6_proc_0 + 2558 pi_d_a6_a4_proc_0
     + 2559 pi_d_a4_a7_proc_2 + 3838 pi_d_a4_a7_proc_0 + 1279 pi_d_a7_a4_proc_0
     + 1279 pi_d_a4_a8_proc_0 + 2559 pi_d_a8_a4_proc_2 + 3838 pi_d_a8_a4_proc_0
     + pi_d_a4_a9_proc_2 + 2558 pi_d_a9_a4_proc_2 + 1279 pi_d_a5_a6_proc_0
     + 2559 pi_d_a6_a5_proc_1 + 3838 pi_d_a6_a5_proc_0 + 2558 pi_d_a5_a7_proc_0
     + pi_d_a7_a5_proc_1 + 2559 pi_d_a7_a5_proc_0 - pi_d_a5_a8_proc_1
     + 2557 pi_d_a5_a8_proc_0 + 2 pi_d_a8_a5_proc_1 + 2560 pi_d_a8_a5_proc_0
     + pi_d_a9_a5_proc_1 + 2558 pi_d_a6_a7_proc_2 + 2558 pi_d_a6_a7_proc_1
     + 3837 pi_d_a6_a7_proc_0 + pi_d_a7_a6_proc_2 + pi_d_a7_a6_proc_1
     + 1280 pi_d_a7_a6_proc_0 - pi_d_a6_a8_proc_2 - pi_d_a6_a8_proc_1
     + 1278 pi_d_a6_a8_proc_0 + 2560 pi_d_a8_a6_proc_2 + 2560 pi_d_a8_a6_proc_1
     + 3839 pi_d_a8_a6_proc_0 + pi_d_a6_a9_proc_2 + pi_d_a6_a9_proc_1
     + 2558 pi_d_a9_a6_proc_2 + 2558 pi_d_a9_a6_proc_1 + 2557 pi_d_a7_a8_proc_2
     - pi_d_a7_a8_proc_1 + 2557 pi_d_a7_a8_proc_0 + 2560 pi_d_a8_a7_proc_2
     + 2 pi_d_a8_a7_proc_1 + 2560 pi_d_a8_a7_proc_0 + 2559 pi_d_a7_a9_proc_2
     + pi_d_a7_a9_proc_1 + 2558 pi_d_a9_a7_proc_2 + 2560 pi_d_a8_a9_proc_2
     + 2 pi_d_a8_a9_proc_1 + 2557 pi_d_a9_a8_proc_2 - pi_d_a9_a8_proc_1
     + pi_y2_a0_proc_1 + pi_y2_a1_proc_0 + pi_y2_a2_proc_0 + pi_y2_a3_proc_1
     + pi_y2_a4_proc_2 + pi_y2_a5_proc_1 + pi_y2_a6_proc_2 + pi_y2_a7_proc_1
     + pi_y2_a8_proc_1 + pi_y2_a9_proc_1 = 0.000139411683
 c2: pi_nr_a0 + pi_nr_a1 + pi_nr_a2 + pi_nr_a3 + pi_nr_a4 + pi_nr_a5 + pi_nr_a6
     + pi_nr_a7 + pi_nr_a8 + pi_nr_a9 - pi_y1_a0 - pi_y1_a1 - pi_y1_a2
     - pi_y1_a3 - pi_y1_a4 - pi_y1_a5 - pi_y1_a6 - pi_y1_a7 - pi_y1_a8
     - pi_y1_a9 >= 1
 c3: - pi_p_a1_a0 + pi_p_a0_a2 - pi_p_a8_a0 + pi_d_a0_a1_proc_2
     + pi_d_a0_a1_proc_1 + pi_d_a0_a1_proc_0 - pi_d_a1_a0_proc_2
     - pi_d_a1_a0_proc_1 - pi_d_a1_a0_proc_0 + pi_d_a0_a2_proc_2
     + pi_d_a0_a2_proc_1 + pi_d_a0_a2_proc_0 - pi_d_a2_a0_proc_2
     - pi_d_a2_a0_proc_1 - pi_d_a2_a0_proc_0 + pi_d_a0_a3_proc_1
     + pi_d_a0_a3_proc_0 - pi_d_a3_a0_proc_1 - pi_d_a3_a0_proc_0
     + pi_d_a0_a4_proc_2 + pi_d_a0_a4_proc_0 - pi_d_a4_a0_proc_2
     - pi_d_a4_a0_proc_0 + pi_d_a0_a5_proc_1 + pi_d_a0_a5_proc_0
     - pi_d_a5_a0_proc_1 - pi_d_a5_a0_proc_0 + pi_d_a0_a6_proc_2
     + pi_d_a0_a6_proc_1 + pi_d_a0_a6_proc_0 - pi_d_a6_a0_proc_2
     - pi_d_a6_a0_proc_1 - pi_d_a6_a0_proc_0 + pi_d_a0_a7_proc_2
     + pi_d_a0_a7_proc_1 + pi_d_a0_a7_proc_0 - pi_d_a7_a0_proc_2
     - pi_d_a7_a0_proc_1 - pi_d_a7_a0_proc_0 + pi_d_a0_a8_proc_2
     + pi_d_a0_a8_proc_1 + pi_d_a0_a8_proc_0 - pi_d_a8_a0_proc_2
     - pi_d_a8_a0_proc_1 - pi_d_a8_a0_proc_0 + pi_d_a0_a9_proc_2
     + pi_d_a0_a9_proc_1 - pi_d_a9_a0_proc_2 - pi_d_a9_a0_proc_1 >= 0
 c4: 937 pi_p_a0_a2 + 937 pi_d_a0_a1_proc_0 + 937 pi_d_a0_a2_proc_0
     + 937 pi_d_a0_a3_proc_0 + 937 pi_d_a0_a4_proc_0 + 937 pi_d_a0_a5_proc_0
     + 937 pi_d_a0_a6_proc_0 + 937 pi_d_a0_a7_proc_0 + 937 pi_d_a0_a8_proc_0
     + pi_y1_a0 + pi_y2_a0_proc_0 >= 0
 c5: 747 pi_p_a0_a2 + 747 pi_d_a0_a1_proc_1 + 747 pi_d_a0_a2_proc_1
     + 747 pi_d_a0_a3_proc_1 + 747 pi_d_a0_a5_proc_1 + 747 pi_d_a0_a6_proc_1
     + 747 pi_d_a0_a7_proc_1 + 747 pi_d_a0_a8_proc_1 + 747 pi_d_a0_a9_proc_1
     + pi_y1_a0 + pi_y2_a0_proc_1 >= 0
 c6: 1226 pi_p_a0_a2 + 1226 pi_d_a0_a1_proc_2 + 1226 pi_d_a0_a2_proc_2
     + 1226 pi_d_a0_a4_proc_2 + 1226 pi_d_a0_a6_proc_2 + 1226 pi_d_a0_a7_proc_2
     + 1226 pi_d_a0_a8_proc_2 + 1226 pi_d_a0_a9_proc_2 + pi_y1_a0
     + pi_y2_a0_proc_2 >= 0
 c7: pi_p_a1_a0 - pi_p_a7_a1 - pi_d_a0_a1_proc_2 - pi_d_a0_a1_proc_1
     - pi_d_a0_a1_proc_0 + pi_d_a1_a0_proc_2 + pi_d_a1_a0_proc_1
     + pi_d_a1_a0_proc_0 + pi_d_a1_a2_proc_2 + pi_d_a1_a2_proc_1
     + pi_d_a1_a2_proc_0 - pi_d_a2_a1_proc_2 - pi_d_a2_a1_proc_1
     - pi_d_a2_a1_proc_0 + pi_d_a1_a3_proc_1 + pi_d_a1_a3_proc_0
     - pi_d_a3_a1_proc_1 - pi_d_a3_a1_proc_0 + pi_d_a1_a4_proc_2
     + pi_d_a1_a4_proc_0 - pi_d_a4_a1_proc_2 - pi_d_a4_a1_proc_0
     + pi_d_a1_a5_proc_1 + pi_d_a1_a5_proc_0 - pi_d_a5_a1_proc_1
     - pi_d_a5_a1_proc_0 + pi_d_a1_a6_proc_2 + pi_d_a1_a6_proc_1
     + pi_d_a1_a6_proc_0 - pi_d_a6_a1_proc_2 - pi_d_a6_a1_proc_1
     - pi_d_a6_a1_proc_0 + pi_d_a1_a7_proc_2 + pi_d_a1_a7_proc_1
     + pi_d_a1_a7_proc_0 - pi_d_a7_a1_proc_2 - pi_d_a7_a1_proc_1
     - pi_d_a7_a1_proc_0 + pi_d_a1_a8_proc_2 + pi_d_a1_a8_proc_1
     + pi_d_a1_a8_proc_0 - pi_d_a8_a1_proc_2 - pi_d_a8_a1_proc_1
     - pi_d_a8_a1_proc_0 + pi_d_a1_a9_proc_2 + pi_d_a1_a9_proc_1
     - pi_d_a9_a1_proc_2 - pi_d_a9_a1_proc_1 >= 0
 c8: 789 pi_p_a1_a0 + 789 pi_d_a1_a0_proc_0 + 789 pi_d_a1_a2_proc_0
     + 789 pi_d_a1_a3_proc_0 + 789 pi_d_a1_a4_proc_0 + 789 pi_d_a1_a5_proc_0
     + 789 pi_d_a1_a6_proc_0 + 789 pi_d_a1_a7_proc_0 + 789 pi_d_a1_a8_proc_0
     + pi_y1_a1 + pi_y2_a1_proc_0 >= 0
 c9: 1184 pi_p_a1_a0 + 1184 pi_d_a1_a0_proc_1 + 1184 pi_d_a1_a2_proc_1
     + 1184 pi_d_a1_a3_proc_1 + 1184 pi_d_a1_a5_proc_1 + 1184 pi_d_a1_a6_proc_1
     + 1184 pi_d_a1_a7_proc_1 + 1184 pi_d_a1_a8_proc_1 + 1184 pi_d_a1_a9_proc_1
     + pi_y1_a1 + pi_y2_a1_proc_1 >= 0
 c10: 653 pi_p_a1_a0 + 653 pi_d_a1_a0_proc_2 + 653 pi_d_a1_a2_proc_2
      + 653 pi_d_a1_a4_proc_2 + 653 pi_d_a1_a6_proc_2 + 653 pi_d_a1_a7_proc_2
      + 653 pi_d_a1_a8_proc_2 + 653 pi_d_a1_a9_proc_2 + pi_y1_a1
      + pi_y2_a1_proc_2 >= 0
 c11: - pi_p_a0_a2 + pi_p_a2_a3 - pi_d_a0_a2_proc_2 - pi_d_a0_a2_proc_1
      - pi_d_a0_a2_proc_0 + pi_d_a2_a0_proc_2 + pi_d_a2_a0_proc_1
      + pi_d_a2_a0_proc_0 - pi_d_a1_a2_proc_2 - pi_d_a1_a2_proc_1
      - pi_d_a1_a2_proc_0 + pi_d_a2_a1_proc_2 + pi_d_a2_a1_proc_1
      + pi_d_a2_a1_proc_0 + pi_d_a2_a3_proc_1 + pi_d_a2_a3_proc_0
      - pi_d_a3_a2_proc_1 - pi_d_a3_a2_proc_0 + pi_d_a2_a4_proc_2
      + pi_d_a2_a4_proc_0 - pi_d_a4_a2_proc_2 - pi_d_a4_a2_proc_0
      + pi_d_a2_a5_proc_1 + pi_d_a2_a5_proc_0 - pi_d_a5_a2_proc_1
      - pi_d_a5_a2_proc_0 + pi_d_a2_a6_proc_2 + pi_d_a2_a6_proc_1
      + pi_d_a2_a6_proc_0 - pi_d_a6_a2_proc_2 - pi_d_a6_a2_proc_1
      - pi_d_a6_a2_proc_0 + pi_d_a2_a7_proc_2 + pi_d_a2_a7_proc_1
      + pi_d_a2_a7_proc_0 - pi_d_a7_a2_proc_2 - pi_d_a7_a2_proc_1
      - pi_d_a7_a2_proc_0 + pi_d_a2_a8_proc_2 + pi_d_a2_a8_proc_1
      + pi_d_a2_a8_proc_0 - pi_d_a8_a2_proc_2 - pi_d_a8_a2_proc_1
      - pi_d_a8_a2_proc_0 + pi_d_a2_a9_proc_2 + pi_d_a2_a9_proc_1
      - pi_d_a9_a2_proc_2 - pi_d_a9_a2_proc_1 >= 0
 c12: 672 pi_p_a2_a3 + 672 pi_d_a2_a0_proc_0 + 672 pi_d_a2_a1_proc_0
      + 672 pi_d_a2_a3_proc_0 + 672 pi_d_a2_a4_proc_0 + 672 pi_d_a2_a5_proc_0
      + 672 pi_d_a2_a6_proc_0 + 672 pi_d_a2_a7_proc_0 + 672 pi_d_a2_a8_proc_0
      + pi_y1_a2 + pi_y2_a2_proc_0 >= 0
 c13: 1020 pi_p_a2_a3 + 1020 pi_d_a2_a0_proc_1 + 1020 pi_d_a2_a1_proc_1
      + 1020 pi_d_a2_a3_proc_1 + 1020 pi_d_a2_a5_proc_1 + 1020 pi_d_a2_a6_proc_1
      + 1020 pi_d_a2_a7_proc_1 + 1020 pi_d_a2_a8_proc_1 + 1020 pi_d_a2_a9_proc_1
      + pi_y1_a2 + pi_y2_a2_proc_1 >= 0
 c14: 812 pi_p_a2_a3 + 812 pi_d_a2_a0_proc_2 + 812 pi_d_a2_a1_proc_2
      + 812 pi_d_a2_a4_proc_2 + 812 pi_d_a2_a6_proc_2 + 812 pi_d_a2_a7_proc_2
      + 812 pi_d_a2_a8_proc_2 + 812 pi_d_a2_a9_proc_2 + pi_y1_a2
      + pi_y2_a2_proc_2 >= 0
 c15: - pi_p_a2_a3 + pi_p_a3_a4 - pi_d_a0_a3_proc_1 - pi_d_a0_a3_proc_0
      + pi_d_a3_a0_proc_1 + pi_d_a3_a0_proc_0 - pi_d_a1_a3_proc_1
      - pi_d_a1_a3_proc_0 + pi_d_a3_a1_proc_1 + pi_d_a3_a1_proc_0
      - pi_d_a2_a3_proc_1 - pi_d_a2_a3_proc_0 + pi_d_a3_a2_proc_1
      + pi_d_a3_a2_proc_0 + pi_d_a3_a4_proc_0 - pi_d_a4_a3_proc_0
      + pi_d_a3_a5_proc_1 + pi_d_a3_a5_proc_0 - pi_d_a5_a3_proc_1
      - pi_d_a5_a3_proc_0 + pi_d_a3_a6_proc_1 + pi_d_a3_a6_proc_0
      - pi_d_a6_a3_proc_1 - pi_d_a6_a3_proc_0 + pi_d_a3_a7_proc_1
      + pi_d_a3_a7_proc_0 - pi_d_a7_a3_proc_1 - pi_d_a7_a3_proc_0
      + pi_d_a3_a8_proc_1 + pi_d_a3_a8_proc_0 - pi_d_a8_a3_proc_1
      - pi_d_a8_a3_proc_0 + pi_d_a3_a9_proc_1 - pi_d_a9_a3_proc_1 >= 0
 c16: 964 pi_p_a3_a4 + 964 pi_d_a3_a0_proc_0 + 964 pi_d_a3_a1_proc_0
      + 964 pi_d_a3_a2_proc_0 + 964 pi_d_a3_a4_proc_0 + 964 pi_d_a3_a5_proc_0
      + 964 pi_d_a3_a6_proc_0 + 964 pi_d_a3_a7_proc_0 + 964 pi_d_a3_a8_proc_0
      + pi_y1_a3 + pi_y2_a3_proc_0 >= 0
 c17: 1074 pi_p_a3_a4 + 1074 pi_d_a3_a0_proc_1 + 1074 pi_d_a3_a1_proc_1
      + 1074 pi_d_a3_a2_proc_1 + 1074 pi_d_a3_a5_proc_1 + 1074 pi_d_a3_a6_proc_1
      + 1074 pi_d_a3_a7_proc_1 + 1074 pi_d_a3_a8_proc_1 + 1074 pi_d_a3_a9_proc_1
      + pi_y1_a3 + pi_y2_a3_proc_1 >= 0
 c18: - pi_p_a3_a4 + pi_p_a4_a5 - pi_p_a5_a4 + pi_p_a4_a7 - pi_d_a0_a4_proc_2
      - pi_d_a0_a4_proc_0 + pi_d_a4_a0_proc_2 + pi_d_a4_a0_proc_0
      - pi_d_a1_a4_proc_2 - pi_d_a1_a4_proc_0 + pi_d_a4_a1_proc_2
      + pi_d_a4_a1_proc_0 - pi_d_a2_a4_proc_2 - pi_d_a2_a4_proc_0
      + pi_d_a4_a2_proc_2 + pi_d_a4_a2_proc_0 - pi_d_a3_a4_proc_0
      + pi_d_a4_a3_proc_0 + pi_d_a4_a5_proc_0 - pi_d_a5_a4_proc_0
      + pi_d_a4_a6_proc_2 + pi_d_a4_a6_proc_0 - pi_d_a6_a4_proc_2
      - pi_d_a6_a4_proc_0 + pi_d_a4_a7_proc_2 + pi_d_a4_a7_proc_0
      - pi_d_a7_a4_proc_2 - pi_d_a7_a4_proc_0 + pi_d_a4_a8_proc_2
      + pi_d_a4_a8_proc_0 - pi_d_a8_a4_proc_2 - pi_d_a8_a4_proc_0
      + pi_d_a4_a9_proc_2 - pi_d_a9_a4_proc_2 >= 0
 c19: 1271 pi_p_a4_a5 + 1271 pi_p_a4_a7 + 1271 pi_d_a4_a0_proc_0
      + 1271 pi_d_a4_a1_proc_0 + 1271 pi_d_a4_a2_proc_0 + 1271 pi_d_a4_a3_proc_0
      + 1271 pi_d_a4_a5_proc_0 + 1271 pi_d_a4_a6_proc_0 + 1271 pi_d_a4_a7_proc_0
      + 1271 pi_d_a4_a8_proc_0 + pi_y1_a4 + pi_y2_a4_proc_0 >= 0
 c20: 1224 pi_p_a4_a5 + 1224 pi_p_a4_a7 + 1224 pi_d_a4_a0_proc_2
      + 1224 pi_d_a4_a1_proc_2 + 1224 pi_d_a4_a2_proc_2 + 1224 pi_d_a4_a6_proc_2
      + 1224 pi_d_a4_a7_proc_2 + 1224 pi_d_a4_a8_proc_2 + 1224 pi_d_a4_a9_proc_2
      + pi_y1_a4 + pi_y2_a4_proc_2 >= 0
 c21: - pi_p_a4_a5 + pi_p_a5_a6 + pi_p_a5_a9 + pi_p_a5_a4 - pi_d_a0_a5_proc_1
      - pi_d_a0_a5_proc_0 + pi_d_a5_a0_proc_1 + pi_d_a5_a0_proc_0
      - pi_d_a1_a5_proc_1 - pi_d_a1_a5_proc_0 + pi_d_a5_a1_proc_1
      + pi_d_a5_a1_proc_0 - pi_d_a2_a5_proc_1 - pi_d_a2_a5_proc_0
      + pi_d_a5_a2_proc_1 + pi_d_a5_a2_proc_0 - pi_d_a3_a5_proc_1
      - pi_d_a3_a5_proc_0 + pi_d_a5_a3_proc_1 + pi_d_a5_a3_proc_0
      - pi_d_a4_a5_proc_0 + pi_d_a5_a4_proc_0 + pi_d_a5_a6_proc_1
      + pi_d_a5_a6_proc_0 - pi_d_a6_a5_proc_1 - pi_d_a6_a5_proc_0
      + pi_d_a5_a7_proc_1 + pi_d_a5_a7_proc_0 - pi_d_a7_a5_proc_1
      - pi_d_a7_a5_proc_0 + pi_d_a5_a8_proc_1 + pi_d_a5_a8_proc_0
      - pi_d_a8_a5_proc_1 - pi_d_a8_a5_proc_0 + pi_d_a5_a9_proc_1
      - pi_d_a9_a5_proc_1 >= 0
 c22: 716 pi_p_a5_a6 + 716 pi_p_a5_a9 + 716 pi_p_a5_a4 + 716 pi_d_a5_a0_proc_0
      + 716 pi_d_a5_a1_proc_0 + 716 pi_d_a5_a2_proc_0 + 716 pi_d_a5_a3_proc_0
      + 716 pi_d_a5_a4_proc_0 + 716 pi_d_a5_a6_proc_0 + 716 pi_d_a5_a7_proc_0
      + 716 pi_d_a5_a8_proc_0 + pi_y1_a5 + pi_y2_a5_proc_0 >= 0
 c23: 700 pi_p_a5_a6 + 700 pi_p_a5_a9 + 700 pi_p_a5_a4 + 700 pi_d_a5_a0_proc_1
      + 700 pi_d_a5_a1_proc_1 + 700 pi_d_a5_a2_proc_1 + 700 pi_d_a5_a3_proc_1
      + 700 pi_d_a5_a6_proc_1 + 700 pi_d_a5_a7_proc_1 + 700 pi_d_a5_a8_proc_1
      + 700 pi_d_a5_a9_proc_1 + pi_y1_a5 + pi_y2_a5_proc_1 >= 0
 c24: - pi_p_a5_a6 + pi_p_a6_a8 - pi_d_a0_a6_proc_2 - pi_d_a0_a6_proc_1
      - pi_d_a0_a6_proc_0 + pi_d_a6_a0_proc_2 + pi_d_a6_a0_proc_1
      + pi_d_a6_a0_proc_0 - pi_d_a1_a6_proc_2 - pi_d_a1_a6_proc_1
      - pi_d_a1_a6_proc_0 + pi_d_a6_a1_proc_2 + pi_d_a6_a1_proc_1
      + pi_d_a6_a1_proc_0 - pi_d_a2_a6_proc_2 - pi_d_a2_a6_proc_1
      - pi_d_a2_a6_proc_0 + pi_d_a6_a2_proc_2 + pi_d_a6_a2_proc_1
      + pi_d_a6_a2_proc_0 - pi_d_a3_a6_proc_1 - pi_d_a3_a6_proc_0
      + pi_d_a6_a3_proc_1 + pi_d_a6_a3_proc_0 - pi_d_a4_a6_proc_2
      - pi_d_a4_a6_proc_0 + pi_d_a6_a4_proc_2 + pi_d_a6_a4_proc_0
      - pi_d_a5_a6_proc_1 - pi_d_a5_a6_proc_0 + pi_d_a6_a5_proc_1
      + pi_d_a6_a5_proc_0 + pi_d_a6_a7_proc_2 + pi_d_a6_a7_proc_1
      + pi_d_a6_a7_proc_0 - pi_d_a7_a6_proc_2 - pi_d_a7_a6_proc_1
      - pi_d_a7_a6_proc_0 + pi_d_a6_a8_proc_2 + pi_d_a6_a8_proc_1
      + pi_d_a6_a8_proc_0 - pi_d_a8_a6_proc_2 - pi_d_a8_a6_proc_1
      - pi_d_a8_a6_proc_0 + pi_d_a6_a9_proc_2 + pi_d_a6_a9_proc_1
      - pi_d_a9_a6_proc_2 - pi_d_a9_a6_proc_1 >= 0
 c25: 1070 pi_p_a6_a8 + 1070 pi_d_a6_a0_proc_0 + 1070 pi_d_a6_a1_proc_0
      + 1070 pi_d_a6_a2_proc_0 + 1070 pi_d_a6_a3_proc_0 + 1070 pi_d_a6_a4_proc_0
      + 1070 pi_d_a6_a5_proc_0 + 1070 pi_d_a6_a7_proc_0 + 1070 pi_d_a6_a8_proc_0
      + pi_y1_a6 + pi_y2_a6_proc_0 >= 0
 c26: 1046 pi_p_a6_a8 + 1046 pi_d_a6_a0_proc_1 + 1046 pi_d_a6_a1_proc_1
      + 1046 pi_d_a6_a2_proc_1 + 1046 pi_d_a6_a3_proc_1 + 1046 pi_d_a6_a5_proc_1
      + 1046 pi_d_a6_a7_proc_1 + 1046 pi_d_a6_a8_proc_1 + 1046 pi_d_a6_a9_proc_1
      + pi_y1_a6 + pi_y2_a6_proc_1 >= 0
 c27: 1019 pi_p_a6_a8 + 1019 pi_d_a6_a0_proc_2 + 1019 pi_d_a6_a1_proc_2
      + 1019 pi_d_a6_a2_proc_2 + 1019 pi_d_a6_a4_proc_2 + 1019 pi_d_a6_a7_proc_2
      + 1019 pi_d_a6_a8_proc_2 + 1019 pi_d_a6_a9_proc_2 + pi_y1_a6
      + pi_y2_a6_proc_2 >= 0
 c28: pi_p_a7_a1 - pi_p_a4_a7 - pi_d_a0_a7_proc_2 - pi_d_a0_a7_proc_1
      - pi_d_a0_a7_proc_0 + pi_d_a7_a0_proc_2 + pi_d_a7_a0_proc_1
      + pi_d_a7_a0_proc_0 - pi_d_a1_a7_proc_2 - pi_d_a1_a7_proc_1
      - pi_d_a1_a7_proc_0 + pi_d_a7_a1_proc_2 + pi_d_a7_a1_proc_1
      + pi_d_a7_a1_proc_0 - pi_d_a2_a7_proc_2 - pi_d_a2_a7_proc_1
      - pi_d_a2_a7_proc_0 + pi_d_a7_a2_proc_2 + pi_d_a7_a2_proc_1
      + pi_d_a7_a2_proc_0 - pi_d_a3_a7_proc_1 - pi_d_a3_a7_proc_0
      + pi_d_a7_a3_proc_1 + pi_d_a7_a3_proc_0 - pi_d_a4_a7_proc_2
      - pi_d_a4_a7_proc_0 + pi_d_a7_a4_proc_2 + pi_d_a7_a4_proc_0
      - pi_d_a5_a7_proc_1 - pi_d_a5_a7_proc_0 + pi_d_a7_a5_proc_1
      + pi_d_a7_a5_proc_0 - pi_d_a6_a7_proc_2 - pi_d_a6_a7_proc_1
      - pi_d_a6_a7_proc_0 + pi_d_a7_a6_proc_2 + pi_d_a7_a6_proc_1
      + pi_d_a7_a6_proc_0 + pi_d_a7_a8_proc_2 + pi_d_a7_a8_proc_1
      + pi_d_a7_a8_proc_0 - pi_d_a8_a7_proc_2 - pi_d_a8_a7_proc_1
      - pi_d_a8_a7_proc_0 + pi_d_a7_a9_proc_2 + pi_d_a7_a9_proc_1
      - pi_d_a9_a7_proc_2 - pi_d_a9_a7_proc_1 >= 0
 c29: 686 pi_p_a7_a1 + 686 pi_d_a7_a0_proc_0 + 686 pi_d_a7_a1_proc_0
      + 686 pi_d_a7_a2_proc_0 + 686 pi_d_a7_a3_proc_0 + 686 pi_d_a7_a4_proc_0
      + 686 pi_d_a7_a5_proc_0 + 686 pi_d_a7_a6_proc_0 + 686 pi_d_a7_a8_proc_0
      + pi_y1_a7 + pi_y2_a7_proc_0 >= 0
 c30: 366 pi_p_a7_a1 + 366 pi_d_a7_a0_proc_1 + 366 pi_d_a7_a1_proc_1
      + 366 pi_d_a7_a2_proc_1 + 366 pi_d_a7_a3_proc_1 + 366 pi_d_a7_a5_proc_1
      + 366 pi_d_a7_a6_proc_1 + 366 pi_d_a7_a8_proc_1 + 366 pi_d_a7_a9_proc_1
      + pi_y1_a7 + pi_y2_a7_proc_1 >= 0
 c31: 1279 pi_p_a7_a1 + 1279 pi_d_a7_a0_proc_2 + 1279 pi_d_a7_a1_proc_2
      + 1279 pi_d_a7_a2_proc_2 + 1279 pi_d_a7_a4_proc_2 + 1279 pi_d_a7_a6_proc_2
      + 1279 pi_d_a7_a8_proc_2 + 1279 pi_d_a7_a9_proc_2 + pi_y1_a7
      + pi_y2_a7_proc_2 >= 0
 c32: - pi_p_a6_a8 + pi_p_a8_a0 - pi_p_a9_a8 - pi_d_a0_a8_proc_2
      - pi_d_a0_a8_proc_1 - pi_d_a0_a8_proc_0 + pi_d_a8_a0_proc_2
      + pi_d_a8_a0_proc_1 + pi_d_a8_a0_proc_0 - pi_d_a1_a8_proc_2
      - pi_d_a1_a8_proc_1 - pi_d_a1_a8_proc_0 + pi_d_a8_a1_proc_2
      + pi_d_a8_a1_proc_1 + pi_d_a8_a1_proc_0 - pi_d_a2_a8_proc_2
      - pi_d_a2_a8_proc_1 - pi_d_a2_a8_proc_0 + pi_d_a8_a2_proc_2
      + pi_d_a8_a2_proc_1 + pi_d_a8_a2_proc_0 - pi_d_a3_a8_proc_1
      - pi_d_a3_a8_proc_0 + pi_d_a8_a3_proc_1 + pi_d_a8_a3_proc_0
      - pi_d_a4_a8_proc_2 - pi_d_a4_a8_proc_0 + pi_d_a8_a4_proc_2
      + pi_d_a8_a4_proc_0 - pi_d_a5_a8_proc_1 - pi_d_a5_a8_proc_0
      + pi_d_a8_a5_proc_1 + pi_d_a8_a5_proc_0 - pi_d_a6_a8_proc_2
      - pi_d_a6_a8_proc_1 - pi_d_a6_a8_proc_0 + pi_d_a8_a6_proc_2
      + pi_d_a8_a6_proc_1 + pi_d_a8_a6_proc_0 - pi_d_a7_a8_proc_2
      - pi_d_a7_a8_proc_1 - pi_d_a7_a8_proc_0 + pi_d_a8_a7_proc_2
      + pi_d_a8_a7_proc_1 + pi_d_a8_a7_proc_0 + pi_d_a8_a9_proc_2
      + pi_d_a8_a9_proc_1 - pi_d_a9_a8_proc_2 - pi_d_a9_a8_proc_1 >= 0
 c33: 1006 pi_p_a8_a0 + 1006 pi_d_a8_a0_proc_0 + 1006 pi_d_a8_a1_proc_0
      + 1006 pi_d_a8_a2_proc_0 + 1006 pi_d_a8_a3_proc_0 + 1006 pi_d_a8_a4_proc_0
      + 1006 pi_d_a8_a5_proc_0 + 1006 pi_d_a8_a6_proc_0 + 1006 pi_d_a8_a7_proc_0
      + pi_y1_a8 + pi_y2_a8_proc_0 >= 0
 c34: 575 pi_p_a8_a0 + 575 pi_d_a8_a0_proc_1 + 575 pi_d_a8_a1_proc_1
      + 575 pi_d_a8_a2_proc_1 + 575 pi_d_a8_a3_proc_1 + 575 pi_d_a8_a5_proc_1
      + 575 pi_d_a8_a6_proc_1 + 575 pi_d_a8_a7_proc_1 + 575 pi_d_a8_a9_proc_1
      + pi_y1_a8 + pi_y2_a8_proc_1 >= 0
 c35: 806 pi_p_a8_a0 + 806 pi_d_a8_a0_proc_2 + 806 pi_d_a8_a1_proc_2
      + 806 pi_d_a8_a2_proc_2 + 806 pi_d_a8_a4_proc_2 + 806 pi_d_a8_a6_proc_2
      + 806 pi_d_a8_a7_proc_2 + 806 pi_d_a8_a9_proc_2 + pi_y1_a8
      + pi_y2_a8_proc_2 >= 0
 c36: - pi_p_a5_a9 + pi_p_a9_a8 - pi_d_a0_a9_proc_2 - pi_d_a0_a9_proc_1
      + pi_d_a9_a0_proc_2 + pi_d_a9_a0_proc_1 - pi_d_a1_a9_proc_2
      - pi_d_a1_a9_proc_1 + pi_d_a9_a1_proc_2 + pi_d_a9_a1_proc_1
      - pi_d_a2_a9_proc_2 - pi_d_a2_a9_proc_1 + pi_d_a9_a2_proc_2
      + pi_d_a9_a2_proc_1 - pi_d_a3_a9_proc_1 + pi_d_a9_a3_proc_1
      - pi_d_a4_a9_proc_2 + pi_d_a9_a4_proc_2 - pi_d_a5_a9_proc_1
      + pi_d_a9_a5_proc_1 - pi_d_a6_a9_proc_2 - pi_d_a6_a9_proc_1
      + pi_d_a9_a6_proc_2 + pi_d_a9_a6_proc_1 - pi_d_a7_a9_proc_2
      - pi_d_a7_a9_proc_1 + pi_d_a9_a7_proc_2 + pi_d_a9_a7_proc_1
      - pi_d_a8_a9_proc_2 - pi_d_a8_a9_proc_1 + pi_d_a9_a8_proc_2
      + pi_d_a9_a8_proc_1 >= 0
 c37: 1026 pi_p_a9_a8 + 1026 pi_d_a9_a0_proc_1 + 1026 pi_d_a9_a1_proc_1
      + 1026 pi_d_a9_a2_proc_1 + 1026 pi_d_a9_a3_proc_1 + 1026 pi_d_a9_a5_proc_1
      + 1026 pi_d_a9_a6_proc_1 + 1026 pi_d_a9_a7_proc_1 + 1026 pi_d_a9_a8_proc_1
      + pi_y1_a9 + pi_y2_a9_proc_1 >= 0
 c38: 1099 pi_p_a9_a8 + 1099 pi_d_a9_a0_proc_2 + 1099 pi_d_a9_a1_proc_2
      + 1099 pi_d_a9_a2_proc_2 + 1099 pi_d_a9_a4_proc_2 + 1099 pi_d_a9_a6_proc_2
      + 1099 pi_d_a9_a7_proc_2 + 1099 pi_d_a9_a8_proc_2 + pi_y1_a9
      + pi_y2_a9_proc_2 >= 0

Bounds
       pi_y1_a0 Free
       pi_y1_a1 Free
       pi_y1_a2 Free
       pi_y1_a3 Free
       pi_y1_a4 Free
       pi_y1_a5 Free
       pi_y1_a6 Free
       pi_y1_a7 Free
       pi_y1_a8 Free
       pi_y1_a9 Free
End
