benchmark/results/graph__10-1000-0.10-03_12/graph__10-1000-0.10-03_12_Quinton_Benders_aux.txt
solution for: Quinton Benders_auxiliary_sub
objective: 0.0295463
status: OPTIMAL_SOLUTION(2)
pi_p_a0_a2=0.000
pi_p_a2_a3=0.000
pi_p_a3_a4=0.000
pi_p_a4_a5=0.000
pi_p_a7_a1=0.000
pi_p_a5_a9=0.000
pi_p_a8_a0=0.000
pi_d_a1_a8_proc_0=0.000
pi_d_a9_a7_proc_1=0.000
pi_y1_a0=-0.104
pi_y1_a1=-0.110
pi_y1_a2=-0.094
pi_y1_a3=-0.150
pi_y1_a4=-0.171
pi_y1_a5=-0.098
pi_y1_a7=-0.051
pi_y1_a8=-0.080
pi_y1_a9=-0.143
pi_y2_a1_proc_1=0.110
pi_y2_a1_proc_2=0.110
pi_y2_a3_proc_0=0.015
pi_y2_a9_proc_2=0.143
